26792
1 1 1 1 1 1 1 1 1 1 1 1 1 0 1 1 1 1 0 1 1 0 1 1 1 0 1 0 1 1
19 20 1 8 9 26 8 3 6 5 9 4 0 12 9 2 7 16 16 20 16 16 4 19 17 8 7 0 3 16 4 5 7 3 2 16 7 24 24 10 1 12 12 1 3 22 12 5 22 19 17 14 24 4 17 4 5 5 14 1 17 11 22 29 15 24 5 14 9 10 29 3 2 8 5 15 22 11 3 14 5 12 11 23 20 5 15 2 6 15 9 29 0 8 29 17 20 29 11 3 6 9 19 11 6 7 1 23 11 9 7 1 29 1 7 17 20 8 11 3 0 10 10 22 28 15 14 20 8 2 23 12 12 9 16 26 0 23 22 1 2 17 19 11 6 19 11 8 11 9 8 11 5 22 4 24 0 24 12 17 23 8 19 17 26 0 2 5 29 23 2 14 24 20 23 10 2 14 14 4 26 4 28 22 28 15 29 1 28 29 16 8 26 20 8 10 4 1 0 8